1 19
78 4
117 25
141 31
190 23
210 24
248 15
297 22
348 18
387 4
9 70
45 46
101 63
145 59
184 65
214 46
271 57
312 56
351 75
392 73
17 83
76 87
117 114
155 89
179 115
225 109
268 89
291 101
357 113
364 96
6 140
78 154
91 145
142 151
188 150
226 140
250 153
294 145
328 123
384 130
21 173
46 188
100 193
147 166
166 170
236 197
270 176
315 173
327 181
383 172
25 207
48 206
84 238
156 231
168 204
226 209
270 228
316 230
349 216
366 206
5 246
64 253
102 270
124 251
188 276
234 271
265 275
306 258
341 256
389 247
8 307
43 304
92 316
144 289
174 318
231 300
247 282
283 298
340 293
376 296
28 352
54 321
93 336
124 349
165 333
233 341
255 343
317 337
330 340
379 346
25 374
62 364
118 369
148 393
176 367
234 373
269 366
318 396
330 367
384 386
